SDVRPTW/PR16.sol
Route #1: 162 232 280 52 137 171 218 283
Route #2: 279 130 172 180 266 136 170 78 274
Route #3: 121 92 143 281 261 242 252 147 155 98 282
Route #4: 223
Route #5: 277 262 225 15 100 230 133 275
Route #6:
Route #7:
Route #8: 258 118 178 28 239 72 56 234 1 19 7 267 127
Route #9: 254 43 243 139 51 39 146 185 206 228 126 183
Route #10: 108 198 113 60 12 33 213 93 173 247 125 58 150
Route #11: 176 102 129 76 145 157 231 271 174 209
Route #12: 161 264 81 142 237 53 109 181 5 49
Route #13: 110 246 47 57 18 94 21 107 104 141
Route #14: 156 203 144 20 64 48 111 75 62 256 65
Route #15: 220 90 11 210 199 27 101 164 165 250 211 105 63 268
Route #16: 265 95 122 138 91 255 10 23 169 278 61 8 89 30
Route #17: 269 235 217 177 229 80 152 103 17 272 221 85 245
Route #18: 50 259 160 195 260 84 257 112 163 120 26 153 175 219 201 240 24
Route #19: 123 71 96 270 128 233 45 14 285 3 196
Route #20:
Route #21:
Route #22: 154 179 74 263 189 79 251 42 191 182 35 135 166 248 22
Route #23: 205 9 132 55 66 151 284 216 77 83 222 184 114 116
Route #24: 168 188 241 106 197 212 31 158 193 244 208 186 192 41
Route #25: 46 236 40 54 67 253 149 32 37 2 119 86 224 25
Route #26: 187 73 36 134 6 159 200 140 273 194 69 238 4 207 249
Route #27: 124 276 88 227 204 99 115 38 287 70 215 13 87 117 286
Route #28: 148 97 131 202 226 34 190 44 288 214 16 68 59 167 82 29
Cost: 4711921
